============================[ Problem Statistics ]=============================|                                                                             ||  Number of variables:          4242                                         ||  Number of clauses:            9858                                         ||  Parse time:                   0.26 s                                       ||                                                                             |============================[ Search Statistics ]==============================| Conflicts |          ORIGINAL         |          LEARNT          | Progress ||           |    Vars  Clauses Literals |    Limit  Clauses Lit/Cl |          |===============================================================================|       100 |    1591     6063   393634 |     2223      100     53 | 62.501 % |===============================================================================restarts              : 2conflicts             : 152            (376 /sec)decisions             : 322            (0.00 % random) (797 /sec)propagations          : 9960           (24653 /sec)conflict literals     : 9875           (95.40 % deleted)CPU time              : 0.404 sSATISFIABLE